/*********************************************
 * OPL 12.6.0.0 Data
 * Author: Adrian Rodriguez Bazaga, Pau Rodriguez Esmerats
 * Creation Date: 30/11/2017 at 19:59:18
 *********************************************/

nNurses=1160;
maxConsec=2;
maxPresence=7;
maxHours=5;
minHours=1;
demand= [242 250 373 351 250 373 351 259 252 131 21 30 32 50 51 41 44 28 30 20 242 387 164 351  ];
